gen cost
0 1444
1 1403
2 1386
3 1365
4 1347
5 1328
6 1311
7 1306
8 1302
9 1295
10 1290
11 1290
12 1290
13 1290
14 1290
15 1290
16 1290
17 1290
18 1290
19 1290
20 1290
21 1290
22 1290
23 1289
24 1289
25 1289
26 1289
27 1289
28 1289
29 1289
30 1289
31 1289
32 1289
33 1289
34 1289
35 1289
36 1289
37 1289
38 1287
39 1287
40 1287
41 1287
42 1287
43 1287
44 1287
45 1287
46 1287
47 1287
48 1287
49 1287
